
List of user-set options:

                                    Name   Value                used
                           linear_solver = ma57                  yes
                  ma57_automatic_scaling = yes                   yes
                                max_iter = 2000                  yes
                             mu_strategy = adaptive              yes
                             output_file = DynamicOptimization_FtildeStateIPOPTinfo.txt  yes
                             print_level = 5                     yes
                      print_user_options = yes                   yes
                                     tol = 1e-006                yes
This is Ipopt version 3.11.0, running with linear solver ma57.

Number of nonzeros in equality constraint Jacobian...:    37801
Number of nonzeros in inequality constraint Jacobian.:       36
Number of nonzeros in Lagrangian Hessian.............:    15750

Total number of variables............................:     8209
                     variables with only lower bounds:        0
                variables with lower and upper bounds:     8209
                     variables with only upper bounds:        0
Total number of equality constraints.................:     6301
Total number of inequality constraints...............:       19
        inequality constraints with only lower bounds:        0
   inequality constraints with lower and upper bounds:       19
        inequality constraints with only upper bounds:        0

iter    objective    inf_pr   inf_du lg(mu)  ||d||  lg(rg) alpha_du alpha_pr  ls
   0 9.9999900e-003 2.59e+003 5.07e-002   0.0 0.00e+000    -  0.00e+000 0.00e+000   0
   1 4.5732106e-002 2.40e+003 3.38e+000  -4.9 5.06e+000    -  1.61e-002 7.16e-002h  1
   2 1.2152633e+000 2.15e+002 7.11e+001  -1.0 7.52e+000    -  2.30e-002 9.06e-001f  1
   3 1.3810549e+000 8.98e+001 7.34e+001  -0.4 3.95e-001   2.0 9.90e-001 5.54e-001f  1
   4 1.8594827e+000 4.53e+001 2.60e+001  -0.5 9.83e-001   1.5 8.70e-001 4.87e-001f  1
   5 2.0931391e+000 1.38e+001 2.86e+001  -1.4 3.41e-001   1.9 9.94e-001 6.86e-001h  1
   6 2.1585518e+000 7.20e+000 3.05e+001  -2.3 1.37e-001   2.4 1.00e+000 4.78e-001h  1
   7 2.4050899e+000 6.13e+000 2.28e+001  -1.1 2.47e-001   1.9 9.26e-001 1.00e+000f  1
   8 2.4070737e+000 1.17e+000 5.54e+000  -2.4 4.97e-002   1.4 1.00e+000 1.00e+000h  1
   9 2.3915903e+000 6.89e-002 1.48e-001  -2.4 1.55e-002   0.9 9.41e-001 1.00e+000h  1
iter    objective    inf_pr   inf_du lg(mu)  ||d||  lg(rg) alpha_du alpha_pr  ls
  10 2.1579837e+000 3.45e-002 6.84e-001  -3.5 2.34e-001   0.5 9.97e-001 1.00e+000h  1
  11 1.5332826e+000 3.10e-001 6.78e-001  -3.9 6.95e-001  -0.0 1.00e+000 8.99e-001f  1
  12 1.2267922e+000 4.08e-001 5.95e-001  -3.9 1.14e+000  -0.5 1.00e+000 2.70e-001h  1
  13 9.8677495e-001 7.96e-001 4.72e-001  -3.5 9.57e-001  -1.0 1.00e+000 2.51e-001h  1
  14 9.5886162e-001 5.67e+001 1.71e-001  -3.1 5.50e-001  -1.4 8.25e-001 6.40e-001h  1
  15 1.0108100e+000 1.90e+001 4.29e-002  -3.5 6.88e-001  -1.9 6.21e-001 9.93e-001h  1
  16 1.0890430e+000 6.53e+000 1.08e-001  -3.5 4.81e-001  -2.4 1.00e+000 1.00e+000h  1
  17 1.1311673e+000 2.23e+001 4.61e-002  -3.5 1.16e+000  -2.9 1.00e+000 7.81e-001h  1
  18 1.1498475e+000 4.63e+001 4.60e-002  -3.5 8.98e-001  -2.4 6.03e-001 1.00e+000h  1
  19 1.1542523e+000 6.12e+000 2.57e-002  -3.5 2.67e-001  -2.0 1.00e+000 1.00e+000h  1
iter    objective    inf_pr   inf_du lg(mu)  ||d||  lg(rg) alpha_du alpha_pr  ls
  20 9.4824334e-001 2.76e+000 2.15e-003  -3.9 3.87e-001  -2.5 9.83e-001 1.00e+000h  1
  21 6.7399284e-001 9.69e+000 1.88e-003  -4.4 8.94e-001  -3.0 9.97e-001 1.00e+000h  1
  22 6.3934329e-001 1.23e+001 1.33e-003  -4.4 1.43e+000  -3.5 1.00e+000 9.80e-001h  1
  23 7.4933541e-001 3.07e+001 3.62e-002  -4.0 1.67e+000  -3.9 1.00e+000 8.79e-001h  1
  24 7.2484920e-001 1.43e+001 3.92e-002  -4.1 9.72e-001  -3.5 8.49e-001 9.58e-001h  1
  25 6.0896764e-001 3.56e+000 5.43e-003  -4.8 3.46e-001  -3.1 5.00e-001 1.00e+000h  1
  26 5.7074593e-001 5.62e+001 3.85e-002  -5.3 2.13e+000  -3.6 4.10e-001 9.17e-001h  1
  27 5.6799787e-001 6.16e+002 3.37e-002 -10.5 3.03e+001    -  5.11e-002 1.17e-001h  1
  28 5.5705954e-001 1.93e+002 1.33e-002  -5.9 1.77e+000    -  3.92e-001 7.04e-001h  1
  29 5.6250400e-001 3.64e+001 7.43e-003  -5.2 8.92e-001    -  6.77e-001 8.81e-001h  1
iter    objective    inf_pr   inf_du lg(mu)  ||d||  lg(rg) alpha_du alpha_pr  ls
  30 5.7019452e-001 1.01e+001 6.71e-004  -5.0 4.55e-001    -  6.04e-001 1.00e+000h  1
  31 5.5622269e-001 1.63e+001 7.66e-004  -5.5 2.74e-001  -3.1 6.35e-001 1.00e+000h  1
  32 5.5577226e-001 7.22e+001 1.16e-003 -11.0 2.69e+001    -  2.81e-002 3.64e-002h  1
  33 5.5381808e-001 4.71e+001 9.38e-004  -5.6 5.67e-001    -  8.73e-001 1.00e+000h  1
  34 5.5209282e-001 1.06e+001 2.00e-004  -5.9 2.72e-001    -  9.94e-001 1.00e+000h  1
  35 5.5047779e-001 9.30e-001 1.16e-004  -6.3 3.22e-001    -  1.00e+000 1.00e+000h  1
  36 5.4981473e-001 6.16e-001 5.17e-005  -6.8 3.28e-001    -  1.00e+000 1.00e+000h  1
  37 5.4965411e-001 2.21e-002 5.47e-006  -7.1 1.28e-001    -  1.00e+000 1.00e+000h  1
  38 5.4957411e-001 7.21e-003 2.15e-006  -7.6 2.17e-002    -  1.00e+000 1.00e+000h  1
  39 5.4955197e-001 1.82e-003 1.80e-006  -8.0 6.71e-003    -  1.00e+000 1.00e+000h  1
iter    objective    inf_pr   inf_du lg(mu)  ||d||  lg(rg) alpha_du alpha_pr  ls
  40 5.4954075e-001 4.11e-004 1.07e-005  -8.5 4.14e-003    -  9.96e-001 1.00e+000h  1
  41 5.4953665e-001 6.95e-005 2.21e-007  -9.1 2.90e-003    -  1.00e+000 1.00e+000h  1
  42 5.4953569e-001 1.76e-005 1.59e-008  -9.7 1.85e-003    -  1.00e+000 1.00e+000h  1
  43 5.4953547e-001 3.66e-006 2.03e-009 -10.3 1.01e-003    -  1.00e+000 1.00e+000h  1

Number of Iterations....: 43

                                   (scaled)                 (unscaled)
Objective...............:  5.4953546796165986e-001   5.4953546796165986e-001
Dual infeasibility......:  2.0287286497273979e-009   2.0287286497273979e-009
Constraint violation....:  4.5263503821152097e-007   3.6592923677858380e-006
Complementarity.........:  1.7093281489031854e-010   1.7093281489031854e-010
Overall NLP error.......:  4.5263503821152097e-007   3.6592923677858380e-006


Number of objective function evaluations             = 44
Number of objective gradient evaluations             = 44
Number of equality constraint evaluations            = 44
Number of inequality constraint evaluations          = 44
Number of equality constraint Jacobian evaluations   = 44
Number of inequality constraint Jacobian evaluations = 44
Number of Lagrangian Hessian evaluations             = 43
Total CPU secs in IPOPT (w/o function evaluations)   =      2.455
Total CPU secs in NLP function evaluations           =      6.902

EXIT: Optimal Solution Found.
